
(set-logic HORN)
(declare-datatypes ((Bool_92 0)) (((false_92) (true_92))))
(declare-fun diseqBool_41 (Bool_92 Bool_92) Bool)
(declare-fun isfalse_41 (Bool_92) Bool)
(declare-fun istrue_41 (Bool_92) Bool)
(assert (isfalse_41 false_92))
(assert (istrue_41 true_92))
(assert (diseqBool_41 false_92 true_92))
(assert (diseqBool_41 true_92 false_92))
(declare-fun and_92 (Bool_92 Bool_92 Bool_92) Bool)
(declare-fun or_93 (Bool_92 Bool_92 Bool_92) Bool)
(declare-fun hence_92 (Bool_92 Bool_92 Bool_92) Bool)
(declare-fun not_92 (Bool_92 Bool_92) Bool)
(assert (and_92 false_92 false_92 false_92))
(assert (and_92 false_92 true_92 false_92))
(assert (and_92 false_92 false_92 true_92))
(assert (and_92 true_92 true_92 true_92))
(assert (or_93 false_92 false_92 false_92))
(assert (or_93 true_92 true_92 false_92))
(assert (or_93 true_92 false_92 true_92))
(assert (or_93 true_92 true_92 true_92))
(assert (hence_92 true_92 false_92 false_92))
(assert (hence_92 false_92 true_92 false_92))
(assert (hence_92 true_92 false_92 true_92))
(assert (hence_92 true_92 true_92 true_92))
(assert (not_92 true_92 false_92))
(assert (not_92 false_92 true_92))
(declare-datatypes ((A_13 0)) (((X_7112) (Y_416))))
(declare-fun diseqA_1 (A_13 A_13) Bool)
(declare-fun isX_1 (A_13) Bool)
(declare-fun isY_1 (A_13) Bool)
(assert (isX_1 X_7112))
(assert (isY_1 Y_416))
(assert (diseqA_1 X_7112 Y_416))
(assert (diseqA_1 Y_416 X_7112))
(declare-datatypes ((R_99 0)) (((Nil_78) (Eps_2) (Atom_1 (projAtom_2 A_13)) (Plus_5 (projPlus_4 R_99) (projPlus_5 R_99)) (Seq_2 (projSeq_4 R_99) (projSeq_5 R_99)) (Star_1 (projStar_2 R_99)))))
(declare-fun diseqR_1 (R_99 R_99) Bool)
(declare-fun projAtom_3 (A_13 R_99) Bool)
(declare-fun projPlus_6 (R_99 R_99) Bool)
(declare-fun projPlus_7 (R_99 R_99) Bool)
(declare-fun projSeq_6 (R_99 R_99) Bool)
(declare-fun projSeq_7 (R_99 R_99) Bool)
(declare-fun projStar_3 (R_99 R_99) Bool)
(declare-fun isNil_78 (R_99) Bool)
(declare-fun isEps_1 (R_99) Bool)
(declare-fun isAtom_1 (R_99) Bool)
(declare-fun isPlus_1 (R_99) Bool)
(declare-fun isSeq_1 (R_99) Bool)
(declare-fun isStar_1 (R_99) Bool)
(assert (forall ((x_9201 A_13))
	(projAtom_3 x_9201 (Atom_1 x_9201))))
(assert (forall ((x_9203 R_99) (x_9204 R_99))
	(projPlus_6 x_9203 (Plus_5 x_9203 x_9204))))
(assert (forall ((x_9203 R_99) (x_9204 R_99))
	(projPlus_7 x_9204 (Plus_5 x_9203 x_9204))))
(assert (forall ((x_9206 R_99) (x_9207 R_99))
	(projSeq_6 x_9206 (Seq_2 x_9206 x_9207))))
(assert (forall ((x_9206 R_99) (x_9207 R_99))
	(projSeq_7 x_9207 (Seq_2 x_9206 x_9207))))
(assert (forall ((x_9209 R_99))
	(projStar_3 x_9209 (Star_1 x_9209))))
(assert (isNil_78 Nil_78))
(assert (isEps_1 Eps_2))
(assert (forall ((x_9211 A_13))
	(isAtom_1 (Atom_1 x_9211))))
(assert (forall ((x_9212 R_99) (x_9213 R_99))
	(isPlus_1 (Plus_5 x_9212 x_9213))))
(assert (forall ((x_9214 R_99) (x_9215 R_99))
	(isSeq_1 (Seq_2 x_9214 x_9215))))
(assert (forall ((x_9216 R_99))
	(isStar_1 (Star_1 x_9216))))
(assert (diseqR_1 Nil_78 Eps_2))
(assert (forall ((x_9217 A_13))
	(diseqR_1 Nil_78 (Atom_1 x_9217))))
(assert (forall ((x_9218 R_99) (x_9219 R_99))
	(diseqR_1 Nil_78 (Plus_5 x_9218 x_9219))))
(assert (forall ((x_9220 R_99) (x_9221 R_99))
	(diseqR_1 Nil_78 (Seq_2 x_9220 x_9221))))
(assert (forall ((x_9222 R_99))
	(diseqR_1 Nil_78 (Star_1 x_9222))))
(assert (diseqR_1 Eps_2 Nil_78))
(assert (forall ((x_9223 A_13))
	(diseqR_1 (Atom_1 x_9223) Nil_78)))
(assert (forall ((x_9224 R_99) (x_9225 R_99))
	(diseqR_1 (Plus_5 x_9224 x_9225) Nil_78)))
(assert (forall ((x_9226 R_99) (x_9227 R_99))
	(diseqR_1 (Seq_2 x_9226 x_9227) Nil_78)))
(assert (forall ((x_9228 R_99))
	(diseqR_1 (Star_1 x_9228) Nil_78)))
(assert (forall ((x_9229 A_13))
	(diseqR_1 Eps_2 (Atom_1 x_9229))))
(assert (forall ((x_9230 R_99) (x_9231 R_99))
	(diseqR_1 Eps_2 (Plus_5 x_9230 x_9231))))
(assert (forall ((x_9232 R_99) (x_9233 R_99))
	(diseqR_1 Eps_2 (Seq_2 x_9232 x_9233))))
(assert (forall ((x_9234 R_99))
	(diseqR_1 Eps_2 (Star_1 x_9234))))
(assert (forall ((x_9235 A_13))
	(diseqR_1 (Atom_1 x_9235) Eps_2)))
(assert (forall ((x_9236 R_99) (x_9237 R_99))
	(diseqR_1 (Plus_5 x_9236 x_9237) Eps_2)))
(assert (forall ((x_9238 R_99) (x_9239 R_99))
	(diseqR_1 (Seq_2 x_9238 x_9239) Eps_2)))
(assert (forall ((x_9240 R_99))
	(diseqR_1 (Star_1 x_9240) Eps_2)))
(assert (forall ((x_9241 A_13) (x_9242 R_99) (x_9243 R_99))
	(diseqR_1 (Atom_1 x_9241) (Plus_5 x_9242 x_9243))))
(assert (forall ((x_9244 A_13) (x_9245 R_99) (x_9246 R_99))
	(diseqR_1 (Atom_1 x_9244) (Seq_2 x_9245 x_9246))))
(assert (forall ((x_9247 A_13) (x_9248 R_99))
	(diseqR_1 (Atom_1 x_9247) (Star_1 x_9248))))
(assert (forall ((x_9249 R_99) (x_9250 R_99) (x_9251 A_13))
	(diseqR_1 (Plus_5 x_9249 x_9250) (Atom_1 x_9251))))
(assert (forall ((x_9252 R_99) (x_9253 R_99) (x_9254 A_13))
	(diseqR_1 (Seq_2 x_9252 x_9253) (Atom_1 x_9254))))
(assert (forall ((x_9255 R_99) (x_9256 A_13))
	(diseqR_1 (Star_1 x_9255) (Atom_1 x_9256))))
(assert (forall ((x_9257 R_99) (x_9258 R_99) (x_9259 R_99) (x_9260 R_99))
	(diseqR_1 (Plus_5 x_9257 x_9258) (Seq_2 x_9259 x_9260))))
(assert (forall ((x_9261 R_99) (x_9262 R_99) (x_9263 R_99))
	(diseqR_1 (Plus_5 x_9261 x_9262) (Star_1 x_9263))))
(assert (forall ((x_9264 R_99) (x_9265 R_99) (x_9266 R_99) (x_9267 R_99))
	(diseqR_1 (Seq_2 x_9264 x_9265) (Plus_5 x_9266 x_9267))))
(assert (forall ((x_9268 R_99) (x_9269 R_99) (x_9270 R_99))
	(diseqR_1 (Star_1 x_9268) (Plus_5 x_9269 x_9270))))
(assert (forall ((x_9271 R_99) (x_9272 R_99) (x_9273 R_99))
	(diseqR_1 (Seq_2 x_9271 x_9272) (Star_1 x_9273))))
(assert (forall ((x_9274 R_99) (x_9275 R_99) (x_9276 R_99))
	(diseqR_1 (Star_1 x_9274) (Seq_2 x_9275 x_9276))))
(assert (forall ((x_9277 A_13) (x_9278 A_13))
	(=> (diseqA_1 x_9277 x_9278) (diseqR_1 (Atom_1 x_9277) (Atom_1 x_9278)))))
(assert (forall ((x_9279 R_99) (x_9280 R_99) (x_9281 R_99) (x_9282 R_99))
	(=> (diseqR_1 x_9279 x_9281) (diseqR_1 (Plus_5 x_9279 x_9280) (Plus_5 x_9281 x_9282)))))
(assert (forall ((x_9279 R_99) (x_9280 R_99) (x_9281 R_99) (x_9282 R_99))
	(=> (diseqR_1 x_9280 x_9282) (diseqR_1 (Plus_5 x_9279 x_9280) (Plus_5 x_9281 x_9282)))))
(assert (forall ((x_9283 R_99) (x_9284 R_99) (x_9285 R_99) (x_9286 R_99))
	(=> (diseqR_1 x_9283 x_9285) (diseqR_1 (Seq_2 x_9283 x_9284) (Seq_2 x_9285 x_9286)))))
(assert (forall ((x_9283 R_99) (x_9284 R_99) (x_9285 R_99) (x_9286 R_99))
	(=> (diseqR_1 x_9284 x_9286) (diseqR_1 (Seq_2 x_9283 x_9284) (Seq_2 x_9285 x_9286)))))
(assert (forall ((x_9287 R_99) (x_9288 R_99))
	(=> (diseqR_1 x_9287 x_9288) (diseqR_1 (Star_1 x_9287) (Star_1 x_9288)))))
(declare-datatypes ((list_75 0)) (((nil_79) (cons_75 (head_150 A_13) (tail_150 list_75)))))
(declare-fun diseqlist_75 (list_75 list_75) Bool)
(declare-fun head_151 (A_13 list_75) Bool)
(declare-fun tail_151 (list_75 list_75) Bool)
(declare-fun isnil_79 (list_75) Bool)
(declare-fun iscons_75 (list_75) Bool)
(assert (forall ((x_9290 A_13) (x_9291 list_75))
	(head_151 x_9290 (cons_75 x_9290 x_9291))))
(assert (forall ((x_9290 A_13) (x_9291 list_75))
	(tail_151 x_9291 (cons_75 x_9290 x_9291))))
(assert (isnil_79 nil_79))
(assert (forall ((x_9293 A_13) (x_9294 list_75))
	(iscons_75 (cons_75 x_9293 x_9294))))
(assert (forall ((x_9295 A_13) (x_9296 list_75))
	(diseqlist_75 nil_79 (cons_75 x_9295 x_9296))))
(assert (forall ((x_9297 A_13) (x_9298 list_75))
	(diseqlist_75 (cons_75 x_9297 x_9298) nil_79)))
(assert (forall ((x_9299 A_13) (x_9300 list_75) (x_9301 A_13) (x_9302 list_75))
	(=> (diseqA_1 x_9299 x_9301) (diseqlist_75 (cons_75 x_9299 x_9300) (cons_75 x_9301 x_9302)))))
(assert (forall ((x_9299 A_13) (x_9300 list_75) (x_9301 A_13) (x_9302 list_75))
	(=> (diseqlist_75 x_9300 x_9302) (diseqlist_75 (cons_75 x_9299 x_9300) (cons_75 x_9301 x_9302)))))
(declare-fun seq_3 (R_99 R_99 R_99) Bool)
(assert (forall ((y_417 R_99))
	(seq_3 Nil_78 Nil_78 y_417)))
(assert (forall ((x_7114 R_99) (x_7356 A_13))
	(seq_3 Nil_78 (Atom_1 x_7356) Nil_78)))
(assert (forall ((x_7114 R_99))
	(seq_3 Nil_78 Eps_2 Nil_78)))
(assert (forall ((x_7114 R_99) (x_7357 R_99) (x_7358 R_99))
	(seq_3 Nil_78 (Plus_5 x_7357 x_7358) Nil_78)))
(assert (forall ((x_7114 R_99) (x_7359 R_99) (x_7360 R_99))
	(seq_3 Nil_78 (Seq_2 x_7359 x_7360) Nil_78)))
(assert (forall ((x_7114 R_99) (x_7361 R_99))
	(seq_3 Nil_78 (Star_1 x_7361) Nil_78)))
(assert (forall ((x_7115 R_99) (x_7170 A_13) (x_7114 R_99))
	(seq_3 (Atom_1 x_7170) Eps_2 (Atom_1 x_7170))))
(assert (forall ((x_7115 R_99) (x_7114 R_99))
	(seq_3 Eps_2 Eps_2 Eps_2)))
(assert (forall ((x_7115 R_99) (x_7171 R_99) (x_7172 R_99) (x_7114 R_99))
	(seq_3 (Plus_5 x_7171 x_7172) Eps_2 (Plus_5 x_7171 x_7172))))
(assert (forall ((x_7115 R_99) (x_7173 R_99) (x_7174 R_99) (x_7114 R_99))
	(seq_3 (Seq_2 x_7173 x_7174) Eps_2 (Seq_2 x_7173 x_7174))))
(assert (forall ((x_7115 R_99) (x_7175 R_99) (x_7114 R_99))
	(seq_3 (Star_1 x_7175) Eps_2 (Star_1 x_7175))))
(assert (forall ((x_7116 R_99) (x_7134 A_13) (x_7115 R_99) (x_7114 R_99))
	(seq_3 (Atom_1 x_7134) (Atom_1 x_7134) Eps_2)))
(assert (forall ((x_7116 R_99) (x_7135 R_99) (x_7136 R_99) (x_7115 R_99) (x_7114 R_99))
	(seq_3 (Plus_5 x_7135 x_7136) (Plus_5 x_7135 x_7136) Eps_2)))
(assert (forall ((x_7116 R_99) (x_7137 R_99) (x_7138 R_99) (x_7115 R_99) (x_7114 R_99))
	(seq_3 (Seq_2 x_7137 x_7138) (Seq_2 x_7137 x_7138) Eps_2)))
(assert (forall ((x_7116 R_99) (x_7139 R_99) (x_7115 R_99) (x_7114 R_99))
	(seq_3 (Star_1 x_7139) (Star_1 x_7139) Eps_2)))
(assert (forall ((x_7117 R_99) (x_7128 A_13) (x_7116 R_99) (x_7140 A_13) (x_7115 R_99) (x_7114 R_99))
	(seq_3 (Seq_2 (Atom_1 x_7140) (Atom_1 x_7128)) (Atom_1 x_7140) (Atom_1 x_7128))))
(assert (forall ((x_7117 R_99) (x_7128 A_13) (x_7116 R_99) (x_7141 R_99) (x_7142 R_99) (x_7115 R_99) (x_7114 R_99))
	(seq_3 (Seq_2 (Plus_5 x_7141 x_7142) (Atom_1 x_7128)) (Plus_5 x_7141 x_7142) (Atom_1 x_7128))))
(assert (forall ((x_7117 R_99) (x_7128 A_13) (x_7116 R_99) (x_7143 R_99) (x_7144 R_99) (x_7115 R_99) (x_7114 R_99))
	(seq_3 (Seq_2 (Seq_2 x_7143 x_7144) (Atom_1 x_7128)) (Seq_2 x_7143 x_7144) (Atom_1 x_7128))))
(assert (forall ((x_7117 R_99) (x_7128 A_13) (x_7116 R_99) (x_7145 R_99) (x_7115 R_99) (x_7114 R_99))
	(seq_3 (Seq_2 (Star_1 x_7145) (Atom_1 x_7128)) (Star_1 x_7145) (Atom_1 x_7128))))
(assert (forall ((x_7117 R_99) (x_7129 R_99) (x_7130 R_99) (x_7116 R_99) (x_7152 A_13) (x_7115 R_99) (x_7114 R_99))
	(seq_3 (Seq_2 (Atom_1 x_7152) (Plus_5 x_7129 x_7130)) (Atom_1 x_7152) (Plus_5 x_7129 x_7130))))
(assert (forall ((x_7117 R_99) (x_7129 R_99) (x_7130 R_99) (x_7116 R_99) (x_7153 R_99) (x_7154 R_99) (x_7115 R_99) (x_7114 R_99))
	(seq_3 (Seq_2 (Plus_5 x_7153 x_7154) (Plus_5 x_7129 x_7130)) (Plus_5 x_7153 x_7154) (Plus_5 x_7129 x_7130))))
(assert (forall ((x_7117 R_99) (x_7129 R_99) (x_7130 R_99) (x_7116 R_99) (x_7155 R_99) (x_7156 R_99) (x_7115 R_99) (x_7114 R_99))
	(seq_3 (Seq_2 (Seq_2 x_7155 x_7156) (Plus_5 x_7129 x_7130)) (Seq_2 x_7155 x_7156) (Plus_5 x_7129 x_7130))))
(assert (forall ((x_7117 R_99) (x_7129 R_99) (x_7130 R_99) (x_7116 R_99) (x_7157 R_99) (x_7115 R_99) (x_7114 R_99))
	(seq_3 (Seq_2 (Star_1 x_7157) (Plus_5 x_7129 x_7130)) (Star_1 x_7157) (Plus_5 x_7129 x_7130))))
(assert (forall ((x_7117 R_99) (x_7131 R_99) (x_7132 R_99) (x_7116 R_99) (x_7158 A_13) (x_7115 R_99) (x_7114 R_99))
	(seq_3 (Seq_2 (Atom_1 x_7158) (Seq_2 x_7131 x_7132)) (Atom_1 x_7158) (Seq_2 x_7131 x_7132))))
(assert (forall ((x_7117 R_99) (x_7131 R_99) (x_7132 R_99) (x_7116 R_99) (x_7159 R_99) (x_7160 R_99) (x_7115 R_99) (x_7114 R_99))
	(seq_3 (Seq_2 (Plus_5 x_7159 x_7160) (Seq_2 x_7131 x_7132)) (Plus_5 x_7159 x_7160) (Seq_2 x_7131 x_7132))))
(assert (forall ((x_7117 R_99) (x_7131 R_99) (x_7132 R_99) (x_7116 R_99) (x_7161 R_99) (x_7162 R_99) (x_7115 R_99) (x_7114 R_99))
	(seq_3 (Seq_2 (Seq_2 x_7161 x_7162) (Seq_2 x_7131 x_7132)) (Seq_2 x_7161 x_7162) (Seq_2 x_7131 x_7132))))
(assert (forall ((x_7117 R_99) (x_7131 R_99) (x_7132 R_99) (x_7116 R_99) (x_7163 R_99) (x_7115 R_99) (x_7114 R_99))
	(seq_3 (Seq_2 (Star_1 x_7163) (Seq_2 x_7131 x_7132)) (Star_1 x_7163) (Seq_2 x_7131 x_7132))))
(assert (forall ((x_7117 R_99) (x_7133 R_99) (x_7116 R_99) (x_7164 A_13) (x_7115 R_99) (x_7114 R_99))
	(seq_3 (Seq_2 (Atom_1 x_7164) (Star_1 x_7133)) (Atom_1 x_7164) (Star_1 x_7133))))
(assert (forall ((x_7117 R_99) (x_7133 R_99) (x_7116 R_99) (x_7165 R_99) (x_7166 R_99) (x_7115 R_99) (x_7114 R_99))
	(seq_3 (Seq_2 (Plus_5 x_7165 x_7166) (Star_1 x_7133)) (Plus_5 x_7165 x_7166) (Star_1 x_7133))))
(assert (forall ((x_7117 R_99) (x_7133 R_99) (x_7116 R_99) (x_7167 R_99) (x_7168 R_99) (x_7115 R_99) (x_7114 R_99))
	(seq_3 (Seq_2 (Seq_2 x_7167 x_7168) (Star_1 x_7133)) (Seq_2 x_7167 x_7168) (Star_1 x_7133))))
(assert (forall ((x_7117 R_99) (x_7133 R_99) (x_7116 R_99) (x_7169 R_99) (x_7115 R_99) (x_7114 R_99))
	(seq_3 (Seq_2 (Star_1 x_7169) (Star_1 x_7133)) (Star_1 x_7169) (Star_1 x_7133))))
(declare-fun plus_6 (R_99 R_99 R_99) Bool)
(assert (forall ((x_9116 R_99))
	(plus_6 x_9116 Nil_78 x_9116)))
(assert (forall ((x_7119 R_99) (x_8298 A_13))
	(plus_6 (Atom_1 x_8298) (Atom_1 x_8298) Nil_78)))
(assert (forall ((x_7119 R_99))
	(plus_6 Eps_2 Eps_2 Nil_78)))
(assert (forall ((x_7119 R_99) (x_8299 R_99) (x_8300 R_99))
	(plus_6 (Plus_5 x_8299 x_8300) (Plus_5 x_8299 x_8300) Nil_78)))
(assert (forall ((x_7119 R_99) (x_8301 R_99) (x_8302 R_99))
	(plus_6 (Seq_2 x_8301 x_8302) (Seq_2 x_8301 x_8302) Nil_78)))
(assert (forall ((x_7119 R_99) (x_8303 R_99))
	(plus_6 (Star_1 x_8303) (Star_1 x_8303) Nil_78)))
(assert (forall ((x_7120 R_99) (x_8292 A_13) (x_7119 R_99) (x_8304 A_13))
	(plus_6 (Plus_5 (Atom_1 x_8304) (Atom_1 x_8292)) (Atom_1 x_8304) (Atom_1 x_8292))))
(assert (forall ((x_7120 R_99) (x_8292 A_13) (x_7119 R_99))
	(plus_6 (Plus_5 Eps_2 (Atom_1 x_8292)) Eps_2 (Atom_1 x_8292))))
(assert (forall ((x_7120 R_99) (x_8292 A_13) (x_7119 R_99) (x_8305 R_99) (x_8306 R_99))
	(plus_6 (Plus_5 (Plus_5 x_8305 x_8306) (Atom_1 x_8292)) (Plus_5 x_8305 x_8306) (Atom_1 x_8292))))
(assert (forall ((x_7120 R_99) (x_8292 A_13) (x_7119 R_99) (x_8307 R_99) (x_8308 R_99))
	(plus_6 (Plus_5 (Seq_2 x_8307 x_8308) (Atom_1 x_8292)) (Seq_2 x_8307 x_8308) (Atom_1 x_8292))))
(assert (forall ((x_7120 R_99) (x_8292 A_13) (x_7119 R_99) (x_8309 R_99))
	(plus_6 (Plus_5 (Star_1 x_8309) (Atom_1 x_8292)) (Star_1 x_8309) (Atom_1 x_8292))))
(assert (forall ((x_7120 R_99) (x_7119 R_99) (x_8310 A_13))
	(plus_6 (Plus_5 (Atom_1 x_8310) Eps_2) (Atom_1 x_8310) Eps_2)))
(assert (forall ((x_7120 R_99) (x_7119 R_99))
	(plus_6 (Plus_5 Eps_2 Eps_2) Eps_2 Eps_2)))
(assert (forall ((x_7120 R_99) (x_7119 R_99) (x_8311 R_99) (x_8312 R_99))
	(plus_6 (Plus_5 (Plus_5 x_8311 x_8312) Eps_2) (Plus_5 x_8311 x_8312) Eps_2)))
(assert (forall ((x_7120 R_99) (x_7119 R_99) (x_8313 R_99) (x_8314 R_99))
	(plus_6 (Plus_5 (Seq_2 x_8313 x_8314) Eps_2) (Seq_2 x_8313 x_8314) Eps_2)))
(assert (forall ((x_7120 R_99) (x_7119 R_99) (x_8315 R_99))
	(plus_6 (Plus_5 (Star_1 x_8315) Eps_2) (Star_1 x_8315) Eps_2)))
(assert (forall ((x_7120 R_99) (x_8293 R_99) (x_8294 R_99) (x_7119 R_99) (x_8316 A_13))
	(plus_6 (Plus_5 (Atom_1 x_8316) (Plus_5 x_8293 x_8294)) (Atom_1 x_8316) (Plus_5 x_8293 x_8294))))
(assert (forall ((x_7120 R_99) (x_8293 R_99) (x_8294 R_99) (x_7119 R_99))
	(plus_6 (Plus_5 Eps_2 (Plus_5 x_8293 x_8294)) Eps_2 (Plus_5 x_8293 x_8294))))
(assert (forall ((x_7120 R_99) (x_8293 R_99) (x_8294 R_99) (x_7119 R_99) (x_8317 R_99) (x_8318 R_99))
	(plus_6 (Plus_5 (Plus_5 x_8317 x_8318) (Plus_5 x_8293 x_8294)) (Plus_5 x_8317 x_8318) (Plus_5 x_8293 x_8294))))
(assert (forall ((x_7120 R_99) (x_8293 R_99) (x_8294 R_99) (x_7119 R_99) (x_8319 R_99) (x_8320 R_99))
	(plus_6 (Plus_5 (Seq_2 x_8319 x_8320) (Plus_5 x_8293 x_8294)) (Seq_2 x_8319 x_8320) (Plus_5 x_8293 x_8294))))
(assert (forall ((x_7120 R_99) (x_8293 R_99) (x_8294 R_99) (x_7119 R_99) (x_8321 R_99))
	(plus_6 (Plus_5 (Star_1 x_8321) (Plus_5 x_8293 x_8294)) (Star_1 x_8321) (Plus_5 x_8293 x_8294))))
(assert (forall ((x_7120 R_99) (x_8295 R_99) (x_8296 R_99) (x_7119 R_99) (x_8322 A_13))
	(plus_6 (Plus_5 (Atom_1 x_8322) (Seq_2 x_8295 x_8296)) (Atom_1 x_8322) (Seq_2 x_8295 x_8296))))
(assert (forall ((x_7120 R_99) (x_8295 R_99) (x_8296 R_99) (x_7119 R_99))
	(plus_6 (Plus_5 Eps_2 (Seq_2 x_8295 x_8296)) Eps_2 (Seq_2 x_8295 x_8296))))
(assert (forall ((x_7120 R_99) (x_8295 R_99) (x_8296 R_99) (x_7119 R_99) (x_8323 R_99) (x_8324 R_99))
	(plus_6 (Plus_5 (Plus_5 x_8323 x_8324) (Seq_2 x_8295 x_8296)) (Plus_5 x_8323 x_8324) (Seq_2 x_8295 x_8296))))
(assert (forall ((x_7120 R_99) (x_8295 R_99) (x_8296 R_99) (x_7119 R_99) (x_8325 R_99) (x_8326 R_99))
	(plus_6 (Plus_5 (Seq_2 x_8325 x_8326) (Seq_2 x_8295 x_8296)) (Seq_2 x_8325 x_8326) (Seq_2 x_8295 x_8296))))
(assert (forall ((x_7120 R_99) (x_8295 R_99) (x_8296 R_99) (x_7119 R_99) (x_8327 R_99))
	(plus_6 (Plus_5 (Star_1 x_8327) (Seq_2 x_8295 x_8296)) (Star_1 x_8327) (Seq_2 x_8295 x_8296))))
(assert (forall ((x_7120 R_99) (x_8297 R_99) (x_7119 R_99) (x_8328 A_13))
	(plus_6 (Plus_5 (Atom_1 x_8328) (Star_1 x_8297)) (Atom_1 x_8328) (Star_1 x_8297))))
(assert (forall ((x_7120 R_99) (x_8297 R_99) (x_7119 R_99))
	(plus_6 (Plus_5 Eps_2 (Star_1 x_8297)) Eps_2 (Star_1 x_8297))))
(assert (forall ((x_7120 R_99) (x_8297 R_99) (x_7119 R_99) (x_8329 R_99) (x_8330 R_99))
	(plus_6 (Plus_5 (Plus_5 x_8329 x_8330) (Star_1 x_8297)) (Plus_5 x_8329 x_8330) (Star_1 x_8297))))
(assert (forall ((x_7120 R_99) (x_8297 R_99) (x_7119 R_99) (x_8331 R_99) (x_8332 R_99))
	(plus_6 (Plus_5 (Seq_2 x_8331 x_8332) (Star_1 x_8297)) (Seq_2 x_8331 x_8332) (Star_1 x_8297))))
(assert (forall ((x_7120 R_99) (x_8297 R_99) (x_7119 R_99) (x_8333 R_99))
	(plus_6 (Plus_5 (Star_1 x_8333) (Star_1 x_8297)) (Star_1 x_8333) (Star_1 x_8297))))
(declare-fun eqA_1 (Bool_92 A_13 A_13) Bool)
(assert (eqA_1 true_92 Y_416 Y_416))
(assert (eqA_1 false_92 Y_416 X_7112))
(assert (eqA_1 false_92 X_7112 Y_416))
(assert (eqA_1 true_92 X_7112 X_7112))
(declare-fun eps_3 (Bool_92 R_99) Bool)
(assert (forall ((y_420 R_99))
	(eps_3 true_92 (Star_1 y_420))))
(assert (forall ((x_9152 Bool_92) (x_9153 Bool_92) (x_9154 Bool_92) (r_100 R_99) (q_8 R_99))
	(=> (and (eps_3 x_9153 r_100) (eps_3 x_9154 q_8) (and_92 x_9152 x_9153 x_9154)) (eps_3 x_9152 (Seq_2 r_100 q_8)))))
(assert (forall ((x_9155 Bool_92) (x_9156 Bool_92) (x_9157 Bool_92) (p_21 R_99) (q_9 R_99))
	(=> (and (eps_3 x_9156 p_21) (eps_3 x_9157 q_9) (or_93 x_9155 x_9156 x_9157)) (eps_3 x_9155 (Plus_5 p_21 q_9)))))
(assert (eps_3 true_92 Eps_2))
(assert (forall ((x_7123 R_99) (x_8334 A_13))
	(eps_3 false_92 (Atom_1 x_8334))))
(assert (forall ((x_7123 R_99))
	(eps_3 false_92 Nil_78)))
(declare-fun epsR_1 (R_99 R_99) Bool)
(assert (forall ((x_7124 R_99))
	(=> (eps_3 true_92 x_7124) (epsR_1 Eps_2 x_7124))))
(assert (forall ((x_7124 R_99))
	(=> (eps_3 false_92 x_7124) (epsR_1 Nil_78 x_7124))))
(declare-fun step_1 (R_99 R_99 A_13) Bool)
(assert (forall ((x_9165 R_99) (x_9166 R_99) (p_22 R_99) (y_421 A_13))
	(=> (and (step_1 x_9166 p_22 y_421) (seq_3 x_9165 x_9166 (Star_1 p_22))) (step_1 x_9165 (Star_1 p_22) y_421))))
(assert (forall ((x_9168 R_99) (x_9169 R_99) (x_9170 R_99) (x_9171 R_99) (x_9172 R_99) (x_9173 R_99) (r_101 R_99) (q_10 R_99) (y_421 A_13))
	(=> (and (step_1 x_9169 r_101 y_421) (seq_3 x_9170 x_9169 q_10) (epsR_1 x_9171 r_101) (step_1 x_9172 q_10 y_421) (seq_3 x_9173 x_9171 x_9172) (plus_6 x_9168 x_9170 x_9173)) (step_1 x_9168 (Seq_2 r_101 q_10) y_421))))
(assert (forall ((x_9175 R_99) (x_9176 R_99) (x_9177 R_99) (p_23 R_99) (q_11 R_99) (y_421 A_13))
	(=> (and (step_1 x_9176 p_23 y_421) (step_1 x_9177 q_11 y_421) (plus_6 x_9175 x_9176 x_9177)) (step_1 x_9175 (Plus_5 p_23 q_11) y_421))))
(assert (forall ((a_14 A_13) (y_421 A_13))
	(=> (eqA_1 true_92 a_14 y_421) (step_1 Eps_2 (Atom_1 a_14) y_421))))
(assert (forall ((a_14 A_13) (y_421 A_13))
	(=> (eqA_1 false_92 a_14 y_421) (step_1 Nil_78 (Atom_1 a_14) y_421))))
(assert (forall ((x_7126 R_99) (y_421 A_13))
	(step_1 Nil_78 Eps_2 y_421)))
(assert (forall ((x_7126 R_99) (y_421 A_13))
	(step_1 Nil_78 Nil_78 y_421)))
(declare-fun recognise_1 (Bool_92 R_99 list_75) Bool)
(assert (forall ((x_9185 Bool_92) (x_9186 R_99) (z_491 A_13) (xs_146 list_75) (x_7127 R_99))
	(=> (and (step_1 x_9186 x_7127 z_491) (recognise_1 x_9185 x_9186 xs_146)) (recognise_1 x_9185 x_7127 (cons_75 z_491 xs_146)))))
(assert (forall ((x_9188 Bool_92) (x_7127 R_99))
	(=> (eps_3 x_9188 x_7127) (recognise_1 x_9188 x_7127 nil_79))))
(assert (forall ((x_9190 Bool_92) (x_9191 Bool_92) (p_24 R_99) (q_12 R_99) (s_169 list_75))
	(=> (and true (diseqBool_41 x_9190 x_9191) (recognise_1 x_9190 (Plus_5 p_24 q_12) s_169) (recognise_1 x_9191 (Plus_5 q_12 p_24) s_169)) false)))
(check-sat)
